Instance: E101-08e.dat
Class:  2
100 --- number of customers (no depot)
21 --- number of vehicles
157 --- number of items
Capacity - height - width of vehicles
   200     40     20
Node - x - y - demand  Readytime Duetime
  0.00   35.00  35.00   0.00 0       275.00       
  1.00   41.00  49.00  10.00 170.00  177.00       
  2.00   35.00  17.00   7.00  38.00   53.00       
  3.00   55.00  45.00  13.00 141.00  161.00       
  4.00   55.00  20.00  19.00 174.00  184.00       
  5.00   15.00  30.00  26.00 138.00  155.00       
  6.00   25.00  30.00   3.00 141.00  147.00       
  7.00   20.00  50.00   5.00  23.00   50.00       
  8.00   10.00  43.00   9.00  64.00   70.00       
  9.00   55.00  60.00  16.00 121.00  137.00       
 10.00   30.00  60.00  16.00  33.00   50.00       
 11.00   20.00  65.00  12.00 118.00  123.00       
 12.00   50.00  35.00  19.00  18.00   50.00       
 13.00   30.00  25.00  23.00 192.00  197.00       
 14.00   15.00  10.00  20.00  22.00   50.00       
 15.00   30.00   5.00   8.00  51.00   56.00       
 16.00   10.00  20.00  19.00 169.00  185.00       
 17.00    5.00  30.00   2.00  26.00   50.00       
 18.00   20.00  40.00  12.00  56.00   67.00       
 19.00   15.00  60.00  17.00  72.00   82.00       
 20.00   45.00  65.00   9.00 125.00  139.00       
 21.00   45.00  20.00  11.00 140.00  156.00       
 22.00   45.00  10.00  18.00  99.00  108.00       
 23.00   55.00   5.00  29.00 167.00  181.00       
 24.00   65.00  35.00   3.00  30.00   50.00       
 25.00   65.00  20.00   6.00  70.00   79.00       
 26.00   45.00  30.00  17.00  11.00   50.00       
 27.00   35.00  40.00  16.00 109.00  115.00       
 28.00   41.00  37.00  16.00  83.00   95.00       
 29.00   64.00  42.00   9.00 106.00  117.00       
 30.00   40.00  60.00  21.00  68.00   88.00       
 31.00   31.00  52.00  27.00 171.00  183.00       
 32.00   35.00  69.00  23.00  53.00   73.00       
 33.00   53.00  52.00  11.00 178.00  185.00       
 34.00   65.00  55.00  14.00 177.00  195.00       
 35.00   63.00  65.00   8.00  33.00   50.00       
 36.00    2.00  60.00   5.00  59.00   77.00       
 37.00   20.00  20.00   8.00  81.00  101.00       
 38.00    5.00   5.00  16.00  29.00   50.00       
 39.00   60.00  12.00  31.00 174.00  188.00       
 40.00   40.00  25.00   9.00  34.00   50.00       
 41.00   42.00   7.00   5.00  42.00   59.00       
 42.00   24.00  12.00   5.00 128.00  144.00       
 43.00   23.00   3.00   7.00  96.00  109.00       
 44.00   11.00  14.00  18.00  22.00   50.00       
 45.00    6.00  38.00  16.00  47.00   54.00       
 46.00    2.00  48.00   1.00  83.00   94.00       
 47.00    8.00  56.00  27.00 117.00  133.00       
 48.00   13.00  52.00  36.00 118.00  131.00       
 49.00    6.00  68.00  30.00  22.00   50.00       
 50.00   47.00  47.00  13.00 104.00  123.00       
 51.00   49.00  58.00  10.00 106.00  120.00       
 52.00   27.00  43.00   9.00 145.00  152.00       
 53.00   37.00  31.00  14.00 185.00  194.00       
 54.00   57.00  29.00  18.00  31.00   50.00       
 55.00   63.00  23.00   2.00  93.00  112.00       
 56.00   53.00  12.00   6.00 135.00  143.00       
 57.00   32.00  12.00   7.00 139.00  148.00       
 58.00   36.00  26.00  18.00  35.00   50.00       
 59.00   21.00  24.00  28.00  97.00  104.00       
 60.00   17.00  34.00   3.00 133.00  149.00       
 61.00   12.00  24.00  13.00  86.00  105.00       
 62.00   24.00  58.00  19.00  79.00   93.00       
 63.00   27.00  69.00  10.00 172.00  183.00       
 64.00   15.00  77.00   9.00 110.00  128.00       
 65.00   62.00  77.00  20.00   2.00   50.00       
 66.00   49.00  73.00  25.00  83.00   93.00       
 67.00   67.00   5.00  25.00 130.00  145.00       
 68.00   56.00  39.00  36.00 132.00  139.00       
 69.00   37.00  47.00   6.00 141.00  155.00       
 70.00   37.00  56.00   5.00  27.00   50.00       
 71.00   57.00  68.00  15.00 179.00  186.00       
 72.00   47.00  16.00  25.00  77.00   93.00       
 73.00   44.00  17.00   9.00  13.00   50.00       
 74.00   46.00  13.00   8.00 107.00  113.00       
 75.00   49.00  11.00  18.00 178.00  189.00       
 76.00   49.00  42.00  13.00 123.00  139.00       
 77.00   53.00  43.00  14.00  44.00   58.00       
 78.00   61.00  52.00   3.00  50.00   70.00       
 79.00   57.00  48.00  23.00  69.00   80.00       
 80.00   56.00  37.00   6.00  74.00   83.00       
 81.00   55.00  54.00  26.00  37.00   50.00       
 82.00   15.00  47.00  16.00 184.00  197.00       
 83.00   14.00  37.00  11.00  13.00   50.00       
 84.00   11.00  31.00   7.00 133.00  153.00       
 85.00   16.00  22.00  41.00  98.00  107.00       
 86.00    4.00  18.00  35.00 147.00  165.00       
 87.00   28.00  18.00  26.00  99.00  115.00       
 88.00   26.00  52.00   9.00  76.00   81.00       
 89.00   26.00  35.00  15.00  13.00   50.00       
 90.00   31.00  67.00   3.00  56.00   62.00       
 91.00   15.00  19.00   1.00 181.00  190.00       
 92.00   22.00  22.00   2.00  59.00   72.00       
 93.00   18.00  24.00  22.00  92.00  102.00       
 94.00   26.00  27.00  27.00 116.00  123.00       
 95.00   25.00  24.00  20.00  95.00  106.00       
 96.00   22.00  27.00  11.00  78.00   85.00       
 97.00   25.00  21.00  12.00 105.00  119.00       
 98.00   19.00  21.00  10.00 179.00  195.00   
 99.00   20.00  26.00   9.00 115.00  133.00       
 100.00  18.00  18.00  17.00 104.00  109.00 
Node - number of items - h - w for each item
    0   0
    1   1   33    2
    2   2   15    7   31    3
    3   1    7   18
    4   1   13    5
    5   1   35    3
    6   2    8   18   18    3
    7   1    9    9
    8   2    8    9    8    8
    9   1    7   17
   10   1   31    3
   11   2   10    7   32    4
   12   2   14   10   14    5
   13   2    6   15   30    4
   14   1   14    8
   15   2   10    8   17    6
   16   2    4   17    4    8
   17   2   11    5   33    4
   18   2    6   11   16    6
   19   1   36    3
   20   1   16   10
   21   2   12    9   28    4
   22   2   35    3   22    3
   23   2    6    9   31    3
   24   2    6   13   18    9
   25   1    7   17
   26   1    6   13
   27   1   14    9
   28   2   20    9   34    3
   29   2   12    9   23    4
   30   2   34    2   22    2
   31   2    6   13    6   10
   32   1   29    4
   33   1   27    3
   34   1    4    9
   35   2   14    7   19    3
   36   2    5   16    5   10
   37   2    5   10   18    3
   38   1    7   18
   39   2    6   16   31    3
   40   2   11    8   17    7
   41   2    6    9   14    8
   42   2    9    7   31    4
   43   1   35    4
   44   1   31    2
   45   2    6   17   15    7
   46   1   16    2
   47   2   10    5   22    3
   48   2    7   14   27    3
   49   1   11    7
   50   1    5   18
   51   1    8   16
   52   2    5   10   19    5
   53   1   32    2
   54   2   15    9   20    7
   55   2    5   18    4   14
   56   1    6   17
   57   2    8    6    8    6
   58   2    7   12   32    4
   59   1   20    3
   60   1   33    2
   61   2    5   14   28    3
   62   2    8   14   16   10
   63   2    8    7   23    3
   64   2    6   12    5    9
   65   1   19    6
   66   2   11    8   19    3
   67   2   20   10   22    3
   68   1    7   13
   69   2    6   12   25    3
   70   2   14    9   18    2
   71   2    6   16   24    3
   72   2    8   12   34    2
   73   1   18    6
   74   2   11    6   17    4
   75   1   31    3
   76   1    6    9
   77   2   17    8   15    4
   78   2    7   17   20    3
   79   2    8   17   21    2
   80   1   10    5
   81   2    7   13    7   12
   82   2    5   14   20    3
   83   1    7   18
   84   2    7   15    9    5
   85   1   13   10
   86   2   12    9   31    3
   87   1   16    9
   88   2    7   18    5   14
   89   1    6    9
   90   2   27    4   18    2
   91   1   17    3
   92   1   22    4
   93   2    8   17    4   17
   94   1    7   13
   95   2    4    9   16    8
   96   1   28    2
   97   1   35    3
   98   2   10    7    8    7
   99   1   16    9
  100   2   16    9   28    2

   